Data path: /scratch/opt/lxu/CFLG/benchmarks/Kgroup_A
Instance: K100.2.red
Result path: /scratch/opt/lxu/CFLG/results/Kgroup_A
Solver: Gurobi
Time limit: 3600
Formulation: LEFPV2
Cover: Small
julia --project=. src/main.jl /scratch/opt/lxu/CFLG/benchmarks/Kgroup_A K100.2.red /scratch/opt/lxu/CFLG/results/Kgroup_A Gurobi 3600 LEFPV2 Small
The latest version of Julia in the `release` channel is 1.11.5+0.x64.linux.gnu. You currently have `1.11.4+0.x64.linux.gnu` installed. Run:

  juliaup update

in your terminal shell to install Julia 1.11.5+0.x64.linux.gnu and update the `release` channel to that version.
/scratch/opt/lxu/CFLG/benchmarks/Kgroup_A Gurobi 3600.0 /scratch/opt/lxu/CFLG/results/Kgroup_A K100.2.red LEFPV2 Small
/scratch/opt/lxu/CFLG/benchmarks/Kgroup_A/K100.2.red

 read graph
data loaded


after absorb:24 24

max_piece:16
problem_graph/original graph: node: 33/24 edge: 92/83 dlt: 0.07048185855182397 break_avg_len: 0.254347576513104 break_max_len: 1.0elapsed CPU time: 0.043308 seconds
Set parameter TokenServer to value "solice01.zib.de"
Set parameter Threads to value 1
Set parameter OutputFlag to value 1
Set parameter MIPGap to value 0.0001
Set parameter MIPGapAbs to value 1
Set parameter TimeLimit to value 3599.956692

 more cuts:true
formulation:LEFPV270 22 9
Set parameter PreCrush to value 1

 model loaded

Gurobi Optimizer version 12.0.1 build v12.0.1rc0 (linux64 - "Debian GNU/Linux 12 (bookworm)")

CPU model: Intel(R) Xeon(R) Gold 5222 CPU @ 3.80GHz, instruction set [SSE2|AVX|AVX2|AVX512]
Thread count: 8 physical cores, 16 logical processors, using up to 1 threads

Non-default parameters:
TimeLimit  3599.956692
MIPGapAbs  1
PreCrush  1
Threads  1

Optimize a model with 2723 rows, 1459 columns and 7333 nonzeros
Model fingerprint: 0xb47df424
Variable types: 309 continuous, 1150 integer (1150 binary)
Coefficient statistics:
  Matrix range     [6e-03, 1e+00]
  Objective range  [1e+00, 1e+00]
  Bounds range     [6e-03, 1e+00]
  RHS range        [6e-04, 2e+00]
Presolve removed 1048 rows and 297 columns
Presolve time: 0.05s
Presolved: 1675 rows, 1162 columns, 9443 nonzeros
Variable types: 264 continuous, 898 integer (898 binary)
Found heuristic solution: objective 172.0000000
Found heuristic solution: objective 168.0000000

Root relaxation: objective 1.270000e+02, 377 iterations, 0.00 seconds (0.00 work units)

    Nodes    |    Current Node    |     Objective Bounds      |     Work
 Expl Unexpl |  Obj  Depth IntInf | Incumbent    BestBd   Gap | It/Node Time

     0     0  127.00000    0   45  168.00000  127.00000  24.4%     -    0s
H    0     0                     159.0000000  127.00000  20.1%     -    0s
H    0     0                     148.0000000  127.00000  14.2%     -    0s
H    0     0                     147.0000000  127.00000  13.6%     -    0s
     0     0  127.06615    0   74  147.00000  127.06615  13.6%     -    0s
H    0     0                     143.0000000  127.18917  11.1%     -    0s
     0     0  127.18917    0   76  143.00000  127.18917  11.1%     -    0s
     0     0  128.04340    0   89  143.00000  128.04340  10.5%     -    0s
H    0     0                     142.0000000  128.05801  9.82%     -    0s
     0     0  128.05801    0   82  142.00000  128.05801  9.82%     -    0s
     0     0  128.05801    0   82  142.00000  128.05801  9.82%     -    0s
     0     0  129.07348    0  103  142.00000  129.07348  9.10%     -    0s
     0     0  129.21686    0  100  142.00000  129.21686  9.00%     -    0s
     0     0  129.21686    0   97  142.00000  129.21686  9.00%     -    0s
     0     0  130.36454    0   88  142.00000  130.36454  8.19%     -    0s
     0     0  130.54418    0   84  142.00000  130.54418  8.07%     -    0s
     0     0  130.61883    0  104  142.00000  130.61883  8.01%     -    0s
     0     0  130.64878    0  102  142.00000  130.64878  7.99%     -    0s
     0     0  130.64878    0  100  142.00000  130.64878  7.99%     -    0s
     0     0  130.91678    0  112  142.00000  130.91678  7.81%     -    0s
     0     0  130.91678    0  106  142.00000  130.91678  7.81%     -    0s
     0     0  130.98135    0  100  142.00000  130.98135  7.76%     -    0s
H    0     0                     141.0000000  131.01298  7.08%     -    0s
     0     0  131.01298    0   99  141.00000  131.01298  7.08%     -    0s
     0     0  131.01298    0   97  141.00000  131.01298  7.08%     -    0s
     0     0  131.07202    0   98  141.00000  131.07202  7.04%     -    0s
     0     0  131.07202    0  101  141.00000  131.07202  7.04%     -    0s
     0     0  131.16667    0   76  141.00000  131.16667  6.97%     -    0s
     0     0  131.29167    0   79  141.00000  131.29167  6.89%     -    0s
     0     0  131.29167    0   92  141.00000  131.29167  6.89%     -    0s
H    0     0                     140.0000000  131.30556  6.21%     -    0s
     0     0  131.30556    0   97  140.00000  131.30556  6.21%     -    0s
     0     0  131.30556    0   86  140.00000  131.30556  6.21%     -    0s
     0     0  131.30556    0   74  140.00000  131.30556  6.21%     -    0s
H    0     0                     138.0000000  131.30556  4.85%     -    0s
     0     2  131.32455    0   68  138.00000  131.32455  4.84%     -    0s
H 1153   721                     137.0000000  132.81897  3.05%  28.0    4s
  1574   848  134.10217   20   47  137.00000  133.00000  2.92%  27.9    5s
  4557  2362  133.71930   21   70  137.00000  133.33333  2.68%  28.0   10s
  7063  3683  135.25000   31   29  137.00000  133.50161  2.55%  28.0   15s
 10203  5231  136.00000   28   74  137.00000  133.66343  2.44%  27.9   23s
 10227  5247  136.00000   30  117  137.00000  133.66343  2.44%  27.8   25s
 10280  5282  134.62594   27  104  137.00000  133.66343  2.44%  27.7   30s
 10328  5314  134.00000   24  127  137.00000  133.66343  2.44%  27.6   35s
 10410  5369  133.80389   27  139  137.00000  133.66343  2.44%  27.3   40s
 11037  5538     cutoff   60       137.00000  134.14310  2.09%  34.0   45s
 13096  5875  135.05524   37   91  137.00000  134.38993  1.91%  35.2   50s
 15240  6106  134.76720   35   89  137.00000  134.52252  1.81%  36.3   55s
 17550  6267  135.52820   45   44  137.00000  134.61228  1.74%  37.2   60s
 19798  6387  136.00000   49   26  137.00000  134.70833  1.67%  38.1   65s
 22243  6348  136.00000   47   14  137.00000  134.82663  1.59%  38.4   70s
 24690  6292     cutoff   51       137.00000  134.89244  1.54%  38.7   75s
 27173  6271     cutoff   56       137.00000  134.98333  1.47%  39.0   80s
 29481  6807  135.20585   41   97  137.00000  135.00000  1.46%  39.6   85s
 31843  7516  135.02186   38   99  137.00000  135.00000  1.46%  39.9   90s
 34241  8074  135.79354   45   44  137.00000  135.02767  1.44%  40.2   95s
 36693  8561  135.50156   38   70  137.00000  135.06241  1.41%  40.2  100s
 39019  8933  135.50566   41  119  137.00000  135.10835  1.38%  40.5  105s
 41278  9297     cutoff   44       137.00000  135.15426  1.35%  40.7  110s
 43738  9627  135.75000   43   43  137.00000  135.19232  1.32%  40.7  115s
 46075  9939  136.00000   38   47  137.00000  135.23333  1.29%  40.8  120s
 48479 10220     cutoff   48       137.00000  135.26581  1.27%  40.9  125s
 50686 10516     cutoff   46       137.00000  135.28843  1.25%  40.8  130s
 52941 10570 infeasible   52       137.00000  135.33333  1.22%  41.0  135s
 55222 10763     cutoff   50       137.00000  135.34561  1.21%  41.1  140s
 57419 10869     cutoff   45       137.00000  135.37625  1.19%  41.1  145s
 59787 10923  135.77778   40   44  137.00000  135.41372  1.16%  41.2  150s
 61984 10889     cutoff   42       137.00000  135.45364  1.13%  41.2  155s
 64240 10755  135.60526   51   57  137.00000  135.50000  1.09%  41.4  160s
 66381 10878  136.00000   47   18  137.00000  135.50000  1.09%  41.5  165s
 68685 11118  135.55794   40   65  137.00000  135.50000  1.09%  41.6  170s
 71068 11289  135.78849   40   84  137.00000  135.50582  1.09%  41.5  175s
 73461 11243  135.86340   53   49  137.00000  135.52750  1.07%  41.4  180s
 75916 11162  135.80000   46   40  137.00000  135.55338  1.06%  41.3  185s
 78177 10914  136.00000   59   25  137.00000  135.58696  1.03%  41.2  190s
 80417 10519  135.97517   47   71  137.00000  135.63072  1.00%  41.2  195s
 82679 10131  135.81970   45   80  137.00000  135.66667  0.97%  41.3  200s
 84685 10193 infeasible   47       137.00000  135.66667  0.97%  41.4  205s
 86744 10258  135.66667   43   45  137.00000  135.66667  0.97%  41.5  210s
 89044  9723  136.00000   39   64  137.00000  135.70000  0.95%  41.5  215s
 91402  8916  135.83354   43   83  137.00000  135.75000  0.91%  41.4  220s
 94013  7606  135.88074   46   77  137.00000  135.86945  0.83%  41.2  225s

Cutting planes:
  Gomory: 19
  Cover: 342
  Implied bound: 56
  Clique: 1
  MIR: 167
  Mixing: 16
  StrongCG: 8
  Flow cover: 674
  GUB cover: 69
  Inf proof: 1
  Zero half: 44
  RLT: 49
  Relax-and-lift: 65
  BQP: 5

Explored 95630 nodes (3929155 simplex iterations) in 227.94 seconds (202.04 work units)
Thread count was 1 (of 16 available processors)

Solution count 10: 137 137 138 ... 159

Optimal solution found (tolerance 1.00e-04)
Best objective 1.370000000000e+02, best bound 1.360000000000e+02, gap 0.7299%

User-callback calls 289220, time in user-callback 0.76 sec

 sepatime0
137.0Stat(MathOptInterface.OPTIMAL, 137.0, 136.00000000000003, 0.007299270072992493, 0.0, 0.043308, 227.94411492347717, 95630, Main.CFLG.LEFPV2, "", #undef)
